c File: flat200_3_0.col
c
c SOURCE: Joseph Culberson (joe@cs.ualberta.ca)
c DESCRIPTION: Quasi-random coloring problem
c              generated with flatness = 0
c                             probability = 0.036
c                             known coloring = 3
c                             random seed = 1097
c              Creation Date:  Wed Feb 24 10:40:23 1999
c Maximum degree = 8 Minimum degree = 1
c COLOR VERIFICATION: Using the permuted order
c under simple greedy yields the specified
c coloring number
c Color = 3 specified partitions = 3
c p edge 200 479
c cnf created by edge2cnf
p cnf 600 2237
-1 -2 0
-1 -3 0
-2 -3 0
1 2 3 0
-4 -5 0
-4 -6 0
-5 -6 0
4 5 6 0
-7 -8 0
-7 -9 0
-8 -9 0
7 8 9 0
-10 -11 0
-10 -12 0
-11 -12 0
10 11 12 0
-13 -14 0
-13 -15 0
-14 -15 0
13 14 15 0
-16 -17 0
-16 -18 0
-17 -18 0
16 17 18 0
-19 -20 0
-19 -21 0
-20 -21 0
19 20 21 0
-22 -23 0
-22 -24 0
-23 -24 0
22 23 24 0
-25 -26 0
-25 -27 0
-26 -27 0
25 26 27 0
-28 -29 0
-28 -30 0
-29 -30 0
28 29 30 0
-31 -32 0
-31 -33 0
-32 -33 0
31 32 33 0
-34 -35 0
-34 -36 0
-35 -36 0
34 35 36 0
-37 -38 0
-37 -39 0
-38 -39 0
37 38 39 0
-40 -41 0
-40 -42 0
-41 -42 0
40 41 42 0
-43 -44 0
-43 -45 0
-44 -45 0
43 44 45 0
-46 -47 0
-46 -48 0
-47 -48 0
46 47 48 0
-49 -50 0
-49 -51 0
-50 -51 0
49 50 51 0
-52 -53 0
-52 -54 0
-53 -54 0
52 53 54 0
-55 -56 0
-55 -57 0
-56 -57 0
55 56 57 0
-58 -59 0
-58 -60 0
-59 -60 0
58 59 60 0
-61 -62 0
-61 -63 0
-62 -63 0
61 62 63 0
-64 -65 0
-64 -66 0
-65 -66 0
64 65 66 0
-67 -68 0
-67 -69 0
-68 -69 0
67 68 69 0
-70 -71 0
-70 -72 0
-71 -72 0
70 71 72 0
-73 -74 0
-73 -75 0
-74 -75 0
73 74 75 0
-76 -77 0
-76 -78 0
-77 -78 0
76 77 78 0
-79 -80 0
-79 -81 0
-80 -81 0
79 80 81 0
-82 -83 0
-82 -84 0
-83 -84 0
82 83 84 0
-85 -86 0
-85 -87 0
-86 -87 0
85 86 87 0
-88 -89 0
-88 -90 0
-89 -90 0
88 89 90 0
-91 -92 0
-91 -93 0
-92 -93 0
91 92 93 0
-94 -95 0
-94 -96 0
-95 -96 0
94 95 96 0
-97 -98 0
-97 -99 0
-98 -99 0
97 98 99 0
-100 -101 0
-100 -102 0
-101 -102 0
100 101 102 0
-103 -104 0
-103 -105 0
-104 -105 0
103 104 105 0
-106 -107 0
-106 -108 0
-107 -108 0
106 107 108 0
-109 -110 0
-109 -111 0
-110 -111 0
109 110 111 0
-112 -113 0
-112 -114 0
-113 -114 0
112 113 114 0
-115 -116 0
-115 -117 0
-116 -117 0
115 116 117 0
-118 -119 0
-118 -120 0
-119 -120 0
118 119 120 0
-121 -122 0
-121 -123 0
-122 -123 0
121 122 123 0
-124 -125 0
-124 -126 0
-125 -126 0
124 125 126 0
-127 -128 0
-127 -129 0
-128 -129 0
127 128 129 0
-130 -131 0
-130 -132 0
-131 -132 0
130 131 132 0
-133 -134 0
-133 -135 0
-134 -135 0
133 134 135 0
-136 -137 0
-136 -138 0
-137 -138 0
136 137 138 0
-139 -140 0
-139 -141 0
-140 -141 0
139 140 141 0
-142 -143 0
-142 -144 0
-143 -144 0
142 143 144 0
-145 -146 0
-145 -147 0
-146 -147 0
145 146 147 0
-148 -149 0
-148 -150 0
-149 -150 0
148 149 150 0
-151 -152 0
-151 -153 0
-152 -153 0
151 152 153 0
-154 -155 0
-154 -156 0
-155 -156 0
154 155 156 0
-157 -158 0
-157 -159 0
-158 -159 0
157 158 159 0
-160 -161 0
-160 -162 0
-161 -162 0
160 161 162 0
-163 -164 0
-163 -165 0
-164 -165 0
163 164 165 0
-166 -167 0
-166 -168 0
-167 -168 0
166 167 168 0
-169 -170 0
-169 -171 0
-170 -171 0
169 170 171 0
-172 -173 0
-172 -174 0
-173 -174 0
172 173 174 0
-175 -176 0
-175 -177 0
-176 -177 0
175 176 177 0
-178 -179 0
-178 -180 0
-179 -180 0
178 179 180 0
-181 -182 0
-181 -183 0
-182 -183 0
181 182 183 0
-184 -185 0
-184 -186 0
-185 -186 0
184 185 186 0
-187 -188 0
-187 -189 0
-188 -189 0
187 188 189 0
-190 -191 0
-190 -192 0
-191 -192 0
190 191 192 0
-193 -194 0
-193 -195 0
-194 -195 0
193 194 195 0
-196 -197 0
-196 -198 0
-197 -198 0
196 197 198 0
-199 -200 0
-199 -201 0
-200 -201 0
199 200 201 0
-202 -203 0
-202 -204 0
-203 -204 0
202 203 204 0
-205 -206 0
-205 -207 0
-206 -207 0
205 206 207 0
-208 -209 0
-208 -210 0
-209 -210 0
208 209 210 0
-211 -212 0
-211 -213 0
-212 -213 0
211 212 213 0
-214 -215 0
-214 -216 0
-215 -216 0
214 215 216 0
-217 -218 0
-217 -219 0
-218 -219 0
217 218 219 0
-220 -221 0
-220 -222 0
-221 -222 0
220 221 222 0
-223 -224 0
-223 -225 0
-224 -225 0
223 224 225 0
-226 -227 0
-226 -228 0
-227 -228 0
226 227 228 0
-229 -230 0
-229 -231 0
-230 -231 0
229 230 231 0
-232 -233 0
-232 -234 0
-233 -234 0
232 233 234 0
-235 -236 0
-235 -237 0
-236 -237 0
235 236 237 0
-238 -239 0
-238 -240 0
-239 -240 0
238 239 240 0
-241 -242 0
-241 -243 0
-242 -243 0
241 242 243 0
-244 -245 0
-244 -246 0
-245 -246 0
244 245 246 0
-247 -248 0
-247 -249 0
-248 -249 0
247 248 249 0
-250 -251 0
-250 -252 0
-251 -252 0
250 251 252 0
-253 -254 0
-253 -255 0
-254 -255 0
253 254 255 0
-256 -257 0
-256 -258 0
-257 -258 0
256 257 258 0
-259 -260 0
-259 -261 0
-260 -261 0
259 260 261 0
-262 -263 0
-262 -264 0
-263 -264 0
262 263 264 0
-265 -266 0
-265 -267 0
-266 -267 0
265 266 267 0
-268 -269 0
-268 -270 0
-269 -270 0
268 269 270 0
-271 -272 0
-271 -273 0
-272 -273 0
271 272 273 0
-274 -275 0
-274 -276 0
-275 -276 0
274 275 276 0
-277 -278 0
-277 -279 0
-278 -279 0
277 278 279 0
-280 -281 0
-280 -282 0
-281 -282 0
280 281 282 0
-283 -284 0
-283 -285 0
-284 -285 0
283 284 285 0
-286 -287 0
-286 -288 0
-287 -288 0
286 287 288 0
-289 -290 0
-289 -291 0
-290 -291 0
289 290 291 0
-292 -293 0
-292 -294 0
-293 -294 0
292 293 294 0
-295 -296 0
-295 -297 0
-296 -297 0
295 296 297 0
-298 -299 0
-298 -300 0
-299 -300 0
298 299 300 0
-301 -302 0
-301 -303 0
-302 -303 0
301 302 303 0
-304 -305 0
-304 -306 0
-305 -306 0
304 305 306 0
-307 -308 0
-307 -309 0
-308 -309 0
307 308 309 0
-310 -311 0
-310 -312 0
-311 -312 0
310 311 312 0
-313 -314 0
-313 -315 0
-314 -315 0
313 314 315 0
-316 -317 0
-316 -318 0
-317 -318 0
316 317 318 0
-319 -320 0
-319 -321 0
-320 -321 0
319 320 321 0
-322 -323 0
-322 -324 0
-323 -324 0
322 323 324 0
-325 -326 0
-325 -327 0
-326 -327 0
325 326 327 0
-328 -329 0
-328 -330 0
-329 -330 0
328 329 330 0
-331 -332 0
-331 -333 0
-332 -333 0
331 332 333 0
-334 -335 0
-334 -336 0
-335 -336 0
334 335 336 0
-337 -338 0
-337 -339 0
-338 -339 0
337 338 339 0
-340 -341 0
-340 -342 0
-341 -342 0
340 341 342 0
-343 -344 0
-343 -345 0
-344 -345 0
343 344 345 0
-346 -347 0
-346 -348 0
-347 -348 0
346 347 348 0
-349 -350 0
-349 -351 0
-350 -351 0
349 350 351 0
-352 -353 0
-352 -354 0
-353 -354 0
352 353 354 0
-355 -356 0
-355 -357 0
-356 -357 0
355 356 357 0
-358 -359 0
-358 -360 0
-359 -360 0
358 359 360 0
-361 -362 0
-361 -363 0
-362 -363 0
361 362 363 0
-364 -365 0
-364 -366 0
-365 -366 0
364 365 366 0
-367 -368 0
-367 -369 0
-368 -369 0
367 368 369 0
-370 -371 0
-370 -372 0
-371 -372 0
370 371 372 0
-373 -374 0
-373 -375 0
-374 -375 0
373 374 375 0
-376 -377 0
-376 -378 0
-377 -378 0
376 377 378 0
-379 -380 0
-379 -381 0
-380 -381 0
379 380 381 0
-382 -383 0
-382 -384 0
-383 -384 0
382 383 384 0
-385 -386 0
-385 -387 0
-386 -387 0
385 386 387 0
-388 -389 0
-388 -390 0
-389 -390 0
388 389 390 0
-391 -392 0
-391 -393 0
-392 -393 0
391 392 393 0
-394 -395 0
-394 -396 0
-395 -396 0
394 395 396 0
-397 -398 0
-397 -399 0
-398 -399 0
397 398 399 0
-400 -401 0
-400 -402 0
-401 -402 0
400 401 402 0
-403 -404 0
-403 -405 0
-404 -405 0
403 404 405 0
-406 -407 0
-406 -408 0
-407 -408 0
406 407 408 0
-409 -410 0
-409 -411 0
-410 -411 0
409 410 411 0
-412 -413 0
-412 -414 0
-413 -414 0
412 413 414 0
-415 -416 0
-415 -417 0
-416 -417 0
415 416 417 0
-418 -419 0
-418 -420 0
-419 -420 0
418 419 420 0
-421 -422 0
-421 -423 0
-422 -423 0
421 422 423 0
-424 -425 0
-424 -426 0
-425 -426 0
424 425 426 0
-427 -428 0
-427 -429 0
-428 -429 0
427 428 429 0
-430 -431 0
-430 -432 0
-431 -432 0
430 431 432 0
-433 -434 0
-433 -435 0
-434 -435 0
433 434 435 0
-436 -437 0
-436 -438 0
-437 -438 0
436 437 438 0
-439 -440 0
-439 -441 0
-440 -441 0
439 440 441 0
-442 -443 0
-442 -444 0
-443 -444 0
442 443 444 0
-445 -446 0
-445 -447 0
-446 -447 0
445 446 447 0
-448 -449 0
-448 -450 0
-449 -450 0
448 449 450 0
-451 -452 0
-451 -453 0
-452 -453 0
451 452 453 0
-454 -455 0
-454 -456 0
-455 -456 0
454 455 456 0
-457 -458 0
-457 -459 0
-458 -459 0
457 458 459 0
-460 -461 0
-460 -462 0
-461 -462 0
460 461 462 0
-463 -464 0
-463 -465 0
-464 -465 0
463 464 465 0
-466 -467 0
-466 -468 0
-467 -468 0
466 467 468 0
-469 -470 0
-469 -471 0
-470 -471 0
469 470 471 0
-472 -473 0
-472 -474 0
-473 -474 0
472 473 474 0
-475 -476 0
-475 -477 0
-476 -477 0
475 476 477 0
-478 -479 0
-478 -480 0
-479 -480 0
478 479 480 0
-481 -482 0
-481 -483 0
-482 -483 0
481 482 483 0
-484 -485 0
-484 -486 0
-485 -486 0
484 485 486 0
-487 -488 0
-487 -489 0
-488 -489 0
487 488 489 0
-490 -491 0
-490 -492 0
-491 -492 0
490 491 492 0
-493 -494 0
-493 -495 0
-494 -495 0
493 494 495 0
-496 -497 0
-496 -498 0
-497 -498 0
496 497 498 0
-499 -500 0
-499 -501 0
-500 -501 0
499 500 501 0
-502 -503 0
-502 -504 0
-503 -504 0
502 503 504 0
-505 -506 0
-505 -507 0
-506 -507 0
505 506 507 0
-508 -509 0
-508 -510 0
-509 -510 0
508 509 510 0
-511 -512 0
-511 -513 0
-512 -513 0
511 512 513 0
-514 -515 0
-514 -516 0
-515 -516 0
514 515 516 0
-517 -518 0
-517 -519 0
-518 -519 0
517 518 519 0
-520 -521 0
-520 -522 0
-521 -522 0
520 521 522 0
-523 -524 0
-523 -525 0
-524 -525 0
523 524 525 0
-526 -527 0
-526 -528 0
-527 -528 0
526 527 528 0
-529 -530 0
-529 -531 0
-530 -531 0
529 530 531 0
-532 -533 0
-532 -534 0
-533 -534 0
532 533 534 0
-535 -536 0
-535 -537 0
-536 -537 0
535 536 537 0
-538 -539 0
-538 -540 0
-539 -540 0
538 539 540 0
-541 -542 0
-541 -543 0
-542 -543 0
541 542 543 0
-544 -545 0
-544 -546 0
-545 -546 0
544 545 546 0
-547 -548 0
-547 -549 0
-548 -549 0
547 548 549 0
-550 -551 0
-550 -552 0
-551 -552 0
550 551 552 0
-553 -554 0
-553 -555 0
-554 -555 0
553 554 555 0
-556 -557 0
-556 -558 0
-557 -558 0
556 557 558 0
-559 -560 0
-559 -561 0
-560 -561 0
559 560 561 0
-562 -563 0
-562 -564 0
-563 -564 0
562 563 564 0
-565 -566 0
-565 -567 0
-566 -567 0
565 566 567 0
-568 -569 0
-568 -570 0
-569 -570 0
568 569 570 0
-571 -572 0
-571 -573 0
-572 -573 0
571 572 573 0
-574 -575 0
-574 -576 0
-575 -576 0
574 575 576 0
-577 -578 0
-577 -579 0
-578 -579 0
577 578 579 0
-580 -581 0
-580 -582 0
-581 -582 0
580 581 582 0
-583 -584 0
-583 -585 0
-584 -585 0
583 584 585 0
-586 -587 0
-586 -588 0
-587 -588 0
586 587 588 0
-589 -590 0
-589 -591 0
-590 -591 0
589 590 591 0
-592 -593 0
-592 -594 0
-593 -594 0
592 593 594 0
-595 -596 0
-595 -597 0
-596 -597 0
595 596 597 0
-598 -599 0
-598 -600 0
-599 -600 0
598 599 600 0
-67 -1 0
-68 -2 0
-69 -3 0
-127 -1 0
-128 -2 0
-129 -3 0
-169 -1 0
-170 -2 0
-171 -3 0
-226 -1 0
-227 -2 0
-228 -3 0
-307 -1 0
-308 -2 0
-309 -3 0
-334 -1 0
-335 -2 0
-336 -3 0
-160 -4 0
-161 -5 0
-162 -6 0
-325 -4 0
-326 -5 0
-327 -6 0
-475 -4 0
-476 -5 0
-477 -6 0
-118 -7 0
-119 -8 0
-120 -9 0
-157 -7 0
-158 -8 0
-159 -9 0
-256 -7 0
-257 -8 0
-258 -9 0
-298 -7 0
-299 -8 0
-300 -9 0
-472 -7 0
-473 -8 0
-474 -9 0
-499 -7 0
-500 -8 0
-501 -9 0
-502 -7 0
-503 -8 0
-504 -9 0
-124 -10 0
-125 -11 0
-126 -12 0
-190 -10 0
-191 -11 0
-192 -12 0
-259 -10 0
-260 -11 0
-261 -12 0
-565 -10 0
-566 -11 0
-567 -12 0
-598 -10 0
-599 -11 0
-600 -12 0
-67 -13 0
-68 -14 0
-69 -15 0
-307 -13 0
-308 -14 0
-309 -15 0
-394 -13 0
-395 -14 0
-396 -15 0
-73 -16 0
-74 -17 0
-75 -18 0
-277 -16 0
-278 -17 0
-279 -18 0
-394 -16 0
-395 -17 0
-396 -18 0
-415 -16 0
-416 -17 0
-417 -18 0
-517 -16 0
-518 -17 0
-519 -18 0
-142 -19 0
-143 -20 0
-144 -21 0
-580 -19 0
-581 -20 0
-582 -21 0
-76 -22 0
-77 -23 0
-78 -24 0
-358 -22 0
-359 -23 0
-360 -24 0
-475 -22 0
-476 -23 0
-477 -24 0
-118 -25 0
-119 -26 0
-120 -27 0
-232 -25 0
-233 -26 0
-234 -27 0
-280 -25 0
-281 -26 0
-282 -27 0
-286 -25 0
-287 -26 0
-288 -27 0
-460 -25 0
-461 -26 0
-462 -27 0
-268 -28 0
-269 -29 0
-270 -30 0
-493 -28 0
-494 -29 0
-495 -30 0
-118 -31 0
-119 -32 0
-120 -33 0
-265 -31 0
-266 -32 0
-267 -33 0
-298 -31 0
-299 -32 0
-300 -33 0
-346 -31 0
-347 -32 0
-348 -33 0
-364 -31 0
-365 -32 0
-366 -33 0
-445 -31 0
-446 -32 0
-447 -33 0
-64 -34 0
-65 -35 0
-66 -36 0
-271 -34 0
-272 -35 0
-273 -36 0
-427 -34 0
-428 -35 0
-429 -36 0
-439 -34 0
-440 -35 0
-441 -36 0
-514 -34 0
-515 -35 0
-516 -36 0
-589 -34 0
-590 -35 0
-591 -36 0
-139 -37 0
-140 -38 0
-141 -39 0
-151 -37 0
-152 -38 0
-153 -39 0
-187 -37 0
-188 -38 0
-189 -39 0
-247 -37 0
-248 -38 0
-249 -39 0
-346 -37 0
-347 -38 0
-348 -39 0
-430 -37 0
-431 -38 0
-432 -39 0
-574 -37 0
-575 -38 0
-576 -39 0
-178 -40 0
-179 -41 0
-180 -42 0
-220 -40 0
-221 -41 0
-222 -42 0
-352 -40 0
-353 -41 0
-354 -42 0
-457 -40 0
-458 -41 0
-459 -42 0
-127 -43 0
-128 -44 0
-129 -45 0
-298 -43 0
-299 -44 0
-300 -45 0
-343 -43 0
-344 -44 0
-345 -45 0
-364 -43 0
-365 -44 0
-366 -45 0
-445 -43 0
-446 -44 0
-447 -45 0
-484 -43 0
-485 -44 0
-486 -45 0
-541 -43 0
-542 -44 0
-543 -45 0
-193 -46 0
-194 -47 0
-195 -48 0
-205 -46 0
-206 -47 0
-207 -48 0
-301 -46 0
-302 -47 0
-303 -48 0
-340 -46 0
-341 -47 0
-342 -48 0
-412 -46 0
-413 -47 0
-414 -48 0
-520 -46 0
-521 -47 0
-522 -48 0
-304 -49 0
-305 -50 0
-306 -51 0
-322 -49 0
-323 -50 0
-324 -51 0
-517 -49 0
-518 -50 0
-519 -51 0
-541 -49 0
-542 -50 0
-543 -51 0
-142 -52 0
-143 -53 0
-144 -54 0
-214 -52 0
-215 -53 0
-216 -54 0
-244 -52 0
-245 -53 0
-246 -54 0
-394 -52 0
-395 -53 0
-396 -54 0
-562 -52 0
-563 -53 0
-564 -54 0
-586 -52 0
-587 -53 0
-588 -54 0
-178 -55 0
-179 -56 0
-180 -57 0
-337 -55 0
-338 -56 0
-339 -57 0
-484 -55 0
-485 -56 0
-486 -57 0
-235 -58 0
-236 -59 0
-237 -60 0
-277 -58 0
-278 -59 0
-279 -60 0
-448 -58 0
-449 -59 0
-450 -60 0
-562 -58 0
-563 -59 0
-564 -60 0
-241 -61 0
-242 -62 0
-243 -63 0
-385 -61 0
-386 -62 0
-387 -63 0
-451 -61 0
-452 -62 0
-453 -63 0
-457 -61 0
-458 -62 0
-459 -63 0
-364 -64 0
-365 -65 0
-366 -66 0
-406 -64 0
-407 -65 0
-408 -66 0
-529 -64 0
-530 -65 0
-531 -66 0
-109 -67 0
-110 -68 0
-111 -69 0
-334 -67 0
-335 -68 0
-336 -69 0
-496 -67 0
-497 -68 0
-498 -69 0
-118 -70 0
-119 -71 0
-120 -72 0
-169 -70 0
-170 -71 0
-171 -72 0
-199 -70 0
-200 -71 0
-201 -72 0
-337 -70 0
-338 -71 0
-339 -72 0
-409 -70 0
-410 -71 0
-411 -72 0
-550 -70 0
-551 -71 0
-552 -72 0
-583 -70 0
-584 -71 0
-585 -72 0
-175 -73 0
-176 -74 0
-177 -75 0
-286 -73 0
-287 -74 0
-288 -75 0
-352 -73 0
-353 -74 0
-354 -75 0
-532 -73 0
-533 -74 0
-534 -75 0
-577 -73 0
-578 -74 0
-579 -75 0
-205 -76 0
-206 -77 0
-207 -78 0
-313 -76 0
-314 -77 0
-315 -78 0
-445 -76 0
-446 -77 0
-447 -78 0
-85 -79 0
-86 -80 0
-87 -81 0
-274 -79 0
-275 -80 0
-276 -81 0
-295 -79 0
-296 -80 0
-297 -81 0
-475 -79 0
-476 -80 0
-477 -81 0
-493 -79 0
-494 -80 0
-495 -81 0
-598 -79 0
-599 -80 0
-600 -81 0
-136 -82 0
-137 -83 0
-138 -84 0
-181 -82 0
-182 -83 0
-183 -84 0
-187 -82 0
-188 -83 0
-189 -84 0
-256 -82 0
-257 -83 0
-258 -84 0
-271 -82 0
-272 -83 0
-273 -84 0
-397 -82 0
-398 -83 0
-399 -84 0
-136 -85 0
-137 -86 0
-138 -87 0
-343 -85 0
-344 -86 0
-345 -87 0
-409 -85 0
-410 -86 0
-411 -87 0
-424 -85 0
-425 -86 0
-426 -87 0
-469 -85 0
-470 -86 0
-471 -87 0
-481 -85 0
-482 -86 0
-483 -87 0
-511 -85 0
-512 -86 0
-513 -87 0
-274 -88 0
-275 -89 0
-276 -90 0
-580 -88 0
-581 -89 0
-582 -90 0
-226 -91 0
-227 -92 0
-228 -93 0
-274 -91 0
-275 -92 0
-276 -93 0
-436 -91 0
-437 -92 0
-438 -93 0
-478 -91 0
-479 -92 0
-480 -93 0
-100 -94 0
-101 -95 0
-102 -96 0
-223 -94 0
-224 -95 0
-225 -96 0
-247 -94 0
-248 -95 0
-249 -96 0
-370 -94 0
-371 -95 0
-372 -96 0
-505 -94 0
-506 -95 0
-507 -96 0
-532 -94 0
-533 -95 0
-534 -96 0
-208 -97 0
-209 -98 0
-210 -99 0
-271 -97 0
-272 -98 0
-273 -99 0
-313 -97 0
-314 -98 0
-315 -99 0
-328 -97 0
-329 -98 0
-330 -99 0
-343 -97 0
-344 -98 0
-345 -99 0
-352 -97 0
-353 -98 0
-354 -99 0
-367 -97 0
-368 -98 0
-369 -99 0
-328 -100 0
-329 -101 0
-330 -102 0
-451 -100 0
-452 -101 0
-453 -102 0
-529 -100 0
-530 -101 0
-531 -102 0
-220 -103 0
-221 -104 0
-222 -105 0
-256 -103 0
-257 -104 0
-258 -105 0
-277 -103 0
-278 -104 0
-279 -105 0
-298 -103 0
-299 -104 0
-300 -105 0
-400 -103 0
-401 -104 0
-402 -105 0
-193 -106 0
-194 -107 0
-195 -108 0
-433 -106 0
-434 -107 0
-435 -108 0
-487 -106 0
-488 -107 0
-489 -108 0
-505 -106 0
-506 -107 0
-507 -108 0
-358 -109 0
-359 -110 0
-360 -111 0
-391 -109 0
-392 -110 0
-393 -111 0
-520 -109 0
-521 -110 0
-522 -111 0
-538 -109 0
-539 -110 0
-540 -111 0
-202 -112 0
-203 -113 0
-204 -114 0
-211 -112 0
-212 -113 0
-213 -114 0
-364 -112 0
-365 -113 0
-366 -114 0
-403 -112 0
-404 -113 0
-405 -114 0
-496 -112 0
-497 -113 0
-498 -114 0
-505 -112 0
-506 -113 0
-507 -114 0
-508 -112 0
-509 -113 0
-510 -114 0
-166 -115 0
-167 -116 0
-168 -117 0
-415 -115 0
-416 -116 0
-417 -117 0
-433 -118 0
-434 -119 0
-435 -120 0
-205 -121 0
-206 -122 0
-207 -123 0
-241 -121 0
-242 -122 0
-243 -123 0
-439 -121 0
-440 -122 0
-441 -123 0
-463 -121 0
-464 -122 0
-465 -123 0
-589 -121 0
-590 -122 0
-591 -123 0
-184 -124 0
-185 -125 0
-186 -126 0
-226 -124 0
-227 -125 0
-228 -126 0
-406 -124 0
-407 -125 0
-408 -126 0
-424 -124 0
-425 -125 0
-426 -126 0
-280 -127 0
-281 -128 0
-282 -129 0
-430 -127 0
-431 -128 0
-432 -129 0
-214 -130 0
-215 -131 0
-216 -132 0
-280 -130 0
-281 -131 0
-282 -132 0
-295 -130 0
-296 -131 0
-297 -132 0
-466 -130 0
-467 -131 0
-468 -132 0
-547 -130 0
-548 -131 0
-549 -132 0
-580 -130 0
-581 -131 0
-582 -132 0
-247 -133 0
-248 -134 0
-249 -135 0
-310 -133 0
-311 -134 0
-312 -135 0
-343 -133 0
-344 -134 0
-345 -135 0
-352 -133 0
-353 -134 0
-354 -135 0
-385 -133 0
-386 -134 0
-387 -135 0
-418 -136 0
-419 -137 0
-420 -138 0
-463 -136 0
-464 -137 0
-465 -138 0
-568 -136 0
-569 -137 0
-570 -138 0
-304 -139 0
-305 -140 0
-306 -141 0
-310 -139 0
-311 -140 0
-312 -141 0
-484 -139 0
-485 -140 0
-486 -141 0
-283 -142 0
-284 -143 0
-285 -144 0
-427 -142 0
-428 -143 0
-429 -144 0
-349 -145 0
-350 -146 0
-351 -147 0
-406 -145 0
-407 -146 0
-408 -147 0
-475 -145 0
-476 -146 0
-477 -147 0
-478 -145 0
-479 -146 0
-480 -147 0
-481 -145 0
-482 -146 0
-483 -147 0
-487 -145 0
-488 -146 0
-489 -147 0
-175 -148 0
-176 -149 0
-177 -150 0
-337 -148 0
-338 -149 0
-339 -150 0
-433 -148 0
-434 -149 0
-435 -150 0
-571 -148 0
-572 -149 0
-573 -150 0
-181 -151 0
-182 -152 0
-183 -153 0
-172 -154 0
-173 -155 0
-174 -156 0
-313 -154 0
-314 -155 0
-315 -156 0
-520 -154 0
-521 -155 0
-522 -156 0
-565 -154 0
-566 -155 0
-567 -156 0
-583 -154 0
-584 -155 0
-585 -156 0
-283 -157 0
-284 -158 0
-285 -159 0
-298 -157 0
-299 -158 0
-300 -159 0
-373 -157 0
-374 -158 0
-375 -159 0
-403 -157 0
-404 -158 0
-405 -159 0
-415 -157 0
-416 -158 0
-417 -159 0
-556 -157 0
-557 -158 0
-558 -159 0
-538 -160 0
-539 -161 0
-540 -162 0
-595 -160 0
-596 -161 0
-597 -162 0
-169 -163 0
-170 -164 0
-171 -165 0
-241 -163 0
-242 -164 0
-243 -165 0
-250 -163 0
-251 -164 0
-252 -165 0
-367 -163 0
-368 -164 0
-369 -165 0
-499 -163 0
-500 -164 0
-501 -165 0
-280 -166 0
-281 -167 0
-282 -168 0
-295 -166 0
-296 -167 0
-297 -168 0
-382 -166 0
-383 -167 0
-384 -168 0
-511 -166 0
-512 -167 0
-513 -168 0
-301 -169 0
-302 -170 0
-303 -171 0
-307 -169 0
-308 -170 0
-309 -171 0
-439 -169 0
-440 -170 0
-441 -171 0
-502 -169 0
-503 -170 0
-504 -171 0
-577 -169 0
-578 -170 0
-579 -171 0
-187 -172 0
-188 -173 0
-189 -174 0
-196 -172 0
-197 -173 0
-198 -174 0
-523 -172 0
-524 -173 0
-525 -174 0
-244 -175 0
-245 -176 0
-246 -177 0
-289 -175 0
-290 -176 0
-291 -177 0
-292 -175 0
-293 -176 0
-294 -177 0
-334 -175 0
-335 -176 0
-336 -177 0
-388 -175 0
-389 -176 0
-390 -177 0
-196 -178 0
-197 -179 0
-198 -180 0
-217 -178 0
-218 -179 0
-219 -180 0
-415 -181 0
-416 -182 0
-417 -183 0
-544 -181 0
-545 -182 0
-546 -183 0
-244 -184 0
-245 -185 0
-246 -186 0
-361 -187 0
-362 -188 0
-363 -189 0
-418 -187 0
-419 -188 0
-420 -189 0
-469 -187 0
-470 -188 0
-471 -189 0
-544 -187 0
-545 -188 0
-546 -189 0
-559 -187 0
-560 -188 0
-561 -189 0
-313 -190 0
-314 -191 0
-315 -192 0
-325 -190 0
-326 -191 0
-327 -192 0
-286 -193 0
-287 -194 0
-288 -195 0
-550 -193 0
-551 -194 0
-552 -195 0
-574 -193 0
-575 -194 0
-576 -195 0
-241 -196 0
-242 -197 0
-243 -198 0
-481 -196 0
-482 -197 0
-483 -198 0
-253 -199 0
-254 -200 0
-255 -201 0
-328 -199 0
-329 -200 0
-330 -201 0
-487 -199 0
-488 -200 0
-489 -201 0
-508 -199 0
-509 -200 0
-510 -201 0
-397 -202 0
-398 -203 0
-399 -204 0
-421 -202 0
-422 -203 0
-423 -204 0
-481 -202 0
-482 -203 0
-483 -204 0
-502 -205 0
-503 -206 0
-504 -207 0
-556 -205 0
-557 -206 0
-558 -207 0
-301 -208 0
-302 -209 0
-303 -210 0
-316 -208 0
-317 -209 0
-318 -210 0
-334 -211 0
-335 -212 0
-336 -213 0
-373 -211 0
-374 -212 0
-375 -213 0
-559 -211 0
-560 -212 0
-561 -213 0
-295 -214 0
-296 -215 0
-297 -216 0
-316 -214 0
-317 -215 0
-318 -216 0
-454 -214 0
-455 -215 0
-456 -216 0
-301 -217 0
-302 -218 0
-303 -219 0
-409 -217 0
-410 -218 0
-411 -219 0
-550 -217 0
-551 -218 0
-552 -219 0
-583 -217 0
-584 -218 0
-585 -219 0
-223 -220 0
-224 -221 0
-225 -222 0
-226 -220 0
-227 -221 0
-228 -222 0
-388 -220 0
-389 -221 0
-390 -222 0
-409 -220 0
-410 -221 0
-411 -222 0
-454 -220 0
-455 -221 0
-456 -222 0
-592 -220 0
-593 -221 0
-594 -222 0
-337 -223 0
-338 -224 0
-339 -225 0
-478 -223 0
-479 -224 0
-480 -225 0
-562 -223 0
-563 -224 0
-564 -225 0
-568 -223 0
-569 -224 0
-570 -225 0
-268 -226 0
-269 -227 0
-270 -228 0
-322 -226 0
-323 -227 0
-324 -228 0
-532 -226 0
-533 -227 0
-534 -228 0
-358 -229 0
-359 -230 0
-360 -231 0
-364 -229 0
-365 -230 0
-366 -231 0
-409 -229 0
-410 -230 0
-411 -231 0
-445 -229 0
-446 -230 0
-447 -231 0
-235 -232 0
-236 -233 0
-237 -234 0
-244 -232 0
-245 -233 0
-246 -234 0
-403 -232 0
-404 -233 0
-405 -234 0
-460 -232 0
-461 -233 0
-462 -234 0
-466 -232 0
-467 -233 0
-468 -234 0
-511 -232 0
-512 -233 0
-513 -234 0
-304 -235 0
-305 -236 0
-306 -237 0
-424 -235 0
-425 -236 0
-426 -237 0
-337 -238 0
-338 -239 0
-339 -240 0
-262 -241 0
-263 -242 0
-264 -243 0
-307 -241 0
-308 -242 0
-309 -243 0
-388 -244 0
-389 -245 0
-390 -246 0
-490 -247 0
-491 -248 0
-492 -249 0
-571 -247 0
-572 -248 0
-573 -249 0
-361 -250 0
-362 -251 0
-363 -252 0
-427 -250 0
-428 -251 0
-429 -252 0
-586 -250 0
-587 -251 0
-588 -252 0
-592 -256 0
-593 -257 0
-594 -258 0
-328 -259 0
-329 -260 0
-330 -261 0
-388 -259 0
-389 -260 0
-390 -261 0
-499 -259 0
-500 -260 0
-501 -261 0
-277 -262 0
-278 -263 0
-279 -264 0
-319 -262 0
-320 -263 0
-321 -264 0
-502 -262 0
-503 -263 0
-504 -264 0
-535 -262 0
-536 -263 0
-537 -264 0
-379 -265 0
-380 -266 0
-381 -267 0
-496 -265 0
-497 -266 0
-498 -267 0
-364 -268 0
-365 -269 0
-366 -270 0
-331 -277 0
-332 -278 0
-333 -279 0
-370 -277 0
-371 -278 0
-372 -279 0
-442 -277 0
-443 -278 0
-444 -279 0
-550 -277 0
-551 -278 0
-552 -279 0
-430 -280 0
-431 -281 0
-432 -282 0
-448 -280 0
-449 -281 0
-450 -282 0
-493 -280 0
-494 -281 0
-495 -282 0
-547 -280 0
-548 -281 0
-549 -282 0
-292 -283 0
-293 -284 0
-294 -285 0
-310 -283 0
-311 -284 0
-312 -285 0
-433 -283 0
-434 -284 0
-435 -285 0
-577 -283 0
-578 -284 0
-579 -285 0
-337 -286 0
-338 -287 0
-339 -288 0
-358 -286 0
-359 -287 0
-360 -288 0
-517 -286 0
-518 -287 0
-519 -288 0
-589 -286 0
-590 -287 0
-591 -288 0
-352 -289 0
-353 -290 0
-354 -291 0
-490 -289 0
-491 -290 0
-492 -291 0
-475 -292 0
-476 -293 0
-477 -294 0
-493 -292 0
-494 -293 0
-495 -294 0
-526 -292 0
-527 -293 0
-528 -294 0
-376 -295 0
-377 -296 0
-378 -297 0
-484 -295 0
-485 -296 0
-486 -297 0
-493 -295 0
-494 -296 0
-495 -297 0
-535 -295 0
-536 -296 0
-537 -297 0
-421 -298 0
-422 -299 0
-423 -300 0
-391 -304 0
-392 -305 0
-393 -306 0
-514 -304 0
-515 -305 0
-516 -306 0
-589 -307 0
-590 -308 0
-591 -309 0
-592 -307 0
-593 -308 0
-594 -309 0
-322 -310 0
-323 -311 0
-324 -312 0
-364 -310 0
-365 -311 0
-366 -312 0
-460 -310 0
-461 -311 0
-462 -312 0
-478 -310 0
-479 -311 0
-480 -312 0
-550 -313 0
-551 -314 0
-552 -315 0
-517 -316 0
-518 -317 0
-519 -318 0
-472 -319 0
-473 -320 0
-474 -321 0
-487 -319 0
-488 -320 0
-489 -321 0
-346 -322 0
-347 -323 0
-348 -324 0
-406 -322 0
-407 -323 0
-408 -324 0
-532 -322 0
-533 -323 0
-534 -324 0
-352 -325 0
-353 -326 0
-354 -327 0
-397 -328 0
-398 -329 0
-399 -330 0
-442 -328 0
-443 -329 0
-444 -330 0
-511 -331 0
-512 -332 0
-513 -333 0
-355 -334 0
-356 -335 0
-357 -336 0
-358 -334 0
-359 -335 0
-360 -336 0
-385 -334 0
-386 -335 0
-387 -336 0
-529 -334 0
-530 -335 0
-531 -336 0
-364 -337 0
-365 -338 0
-366 -339 0
-358 -343 0
-359 -344 0
-360 -345 0
-427 -343 0
-428 -344 0
-429 -345 0
-481 -343 0
-482 -344 0
-483 -345 0
-430 -346 0
-431 -347 0
-432 -348 0
-565 -346 0
-566 -347 0
-567 -348 0
-406 -349 0
-407 -350 0
-408 -351 0
-436 -349 0
-437 -350 0
-438 -351 0
-550 -349 0
-551 -350 0
-552 -351 0
-451 -352 0
-452 -353 0
-453 -354 0
-478 -355 0
-479 -356 0
-480 -357 0
-448 -361 0
-449 -362 0
-450 -363 0
-481 -361 0
-482 -362 0
-483 -363 0
-556 -361 0
-557 -362 0
-558 -363 0
-541 -367 0
-542 -368 0
-543 -369 0
-586 -367 0
-587 -368 0
-588 -369 0
-424 -370 0
-425 -371 0
-426 -372 0
-526 -370 0
-527 -371 0
-528 -372 0
-502 -373 0
-503 -374 0
-504 -375 0
-520 -373 0
-521 -374 0
-522 -375 0
-436 -376 0
-437 -377 0
-438 -378 0
-547 -379 0
-548 -380 0
-549 -381 0
-415 -382 0
-416 -383 0
-417 -384 0
-490 -382 0
-491 -383 0
-492 -384 0
-517 -382 0
-518 -383 0
-519 -384 0
-460 -385 0
-461 -386 0
-462 -387 0
-598 -385 0
-599 -386 0
-600 -387 0
-448 -388 0
-449 -389 0
-450 -390 0
-586 -388 0
-587 -389 0
-588 -390 0
-397 -391 0
-398 -392 0
-399 -393 0
-421 -391 0
-422 -392 0
-423 -393 0
-559 -391 0
-560 -392 0
-561 -393 0
-568 -394 0
-569 -395 0
-570 -396 0
-574 -394 0
-575 -395 0
-576 -396 0
-577 -394 0
-578 -395 0
-579 -396 0
-418 -397 0
-419 -398 0
-420 -399 0
-547 -397 0
-548 -398 0
-549 -399 0
-403 -400 0
-404 -401 0
-405 -402 0
-526 -400 0
-527 -401 0
-528 -402 0
-553 -403 0
-554 -404 0
-555 -405 0
-505 -406 0
-506 -407 0
-507 -408 0
-502 -409 0
-503 -410 0
-504 -411 0
-517 -409 0
-518 -410 0
-519 -411 0
-463 -412 0
-464 -413 0
-465 -414 0
-502 -412 0
-503 -413 0
-504 -414 0
-547 -412 0
-548 -413 0
-549 -414 0
-457 -415 0
-458 -416 0
-459 -417 0
-460 -424 0
-461 -425 0
-462 -426 0
-457 -427 0
-458 -428 0
-459 -429 0
-478 -430 0
-479 -431 0
-480 -432 0
-442 -433 0
-443 -434 0
-444 -435 0
-553 -439 0
-554 -440 0
-555 -441 0
-463 -442 0
-464 -443 0
-465 -444 0
-532 -442 0
-533 -443 0
-534 -444 0
-454 -448 0
-455 -449 0
-456 -450 0
-505 -451 0
-506 -452 0
-507 -453 0
-544 -460 0
-545 -461 0
-546 -462 0
-502 -463 0
-503 -464 0
-504 -465 0
-526 -463 0
-527 -464 0
-528 -465 0
-583 -463 0
-584 -464 0
-585 -465 0
-592 -472 0
-593 -473 0
-594 -474 0
-538 -475 0
-539 -476 0
-540 -477 0
-535 -478 0
-536 -479 0
-537 -480 0
-559 -478 0
-560 -479 0
-561 -480 0
-526 -481 0
-527 -482 0
-528 -483 0
-547 -484 0
-548 -485 0
-549 -486 0
-535 -493 0
-536 -494 0
-537 -495 0
-538 -493 0
-539 -494 0
-540 -495 0
-565 -496 0
-566 -497 0
-567 -498 0
-592 -496 0
-593 -497 0
-594 -498 0
-565 -499 0
-566 -500 0
-567 -501 0
-529 -505 0
-530 -506 0
-531 -507 0
-547 -511 0
-548 -512 0
-549 -513 0
-553 -511 0
-554 -512 0
-555 -513 0
-529 -514 0
-530 -515 0
-531 -516 0
-538 -517 0
-539 -518 0
-540 -519 0
-598 -520 0
-599 -521 0
-600 -522 0
-547 -532 0
-548 -533 0
-549 -534 0
-550 -532 0
-551 -533 0
-552 -534 0
-589 -532 0
-590 -533 0
-591 -534 0
-550 -535 0
-551 -536 0
-552 -537 0
-580 -535 0
-581 -536 0
-582 -537 0
-574 -556 0
-575 -557 0
-576 -558 0
-571 -568 0
-572 -569 0
-573 -570 0
-586 -568 0
-587 -569 0
-588 -570 0
-592 -574 0
-593 -575 0
-594 -576 0
-589 -577 0
-590 -578 0
-591 -579 0
-598 -586 0
-599 -587 0
-600 -588 0
